GLPSOL--GLPK LP/MIP Solver 5.0
Parameter(s) specified in the command line:
 --lp ../modeles/4_119.lp --log 4_119.log
Reading problem data from '../modeles/4_119.lp'...
493 rows, 960 columns, 3352 non-zeros
476 integer variables, all of which are binary
1463 lines were read
GLPK Integer Optimizer 5.0
493 rows, 960 columns, 3352 non-zeros
476 integer variables, all of which are binary
Preprocessing...
472 constraint coefficient(s) were reduced
493 rows, 956 columns, 3348 non-zeros
476 integer variables, all of which are binary
Scaling...
 A: min|aij| =  2.825e-04  max|aij| =  4.000e+00  ratio =  1.416e+04
GM: min|aij| =  9.167e-02  max|aij| =  1.091e+01  ratio =  1.190e+02
EQ: min|aij| =  8.403e-03  max|aij| =  1.000e+00  ratio =  1.190e+02
2N: min|aij| =  7.812e-03  max|aij| =  1.710e+00  ratio =  2.189e+02
Constructing initial basis...
Size of triangular part is 493
Solving LP relaxation...
GLPK Simplex Optimizer 5.0
493 rows, 956 columns, 3348 non-zeros
      0: obj =   8.000000000e+00 inf =   1.950e+01 (9)
     43: obj =   4.994703390e-01 inf =   0.000e+00 (0)
*   173: obj =  -1.998949580e+00 inf =   8.430e-16 (0)
OPTIMAL LP SOLUTION FOUND
Integer optimization begins...
Long-step dual simplex will be used
+   173: mip =     not found yet >=              -inf        (1; 0)
+   177: >>>>>  -1.998949580e+00 >=  -1.998949580e+00 < 0.1% (4; 0)
+   177: mip =  -1.998949580e+00 >=     tree is empty   0.0% (0; 7)
INTEGER OPTIMAL SOLUTION FOUND
Time used:   0.0 secs
Memory used: 1.4 Mb (1475438 bytes)
